# Solution for model r10_t27_m1_9
# Finished Task: 25 / 27
# Makespan: 658.0, Total Distance: 1363.0, Total Time: 0.3154
# R O S F
0 0 21 0.0 0.0
1 1 32 0.0 0.0
2 2 10 0.0 0.0
3 3 13 0.0 0.0
4 4 15 0.0 0.0
5 5 16 0.0 0.0
6 6 12 0.0 0.0
7 7 17 0.0 0.0
8 8 19 0.0 0.0
9 9 35 0.0 0.0
10 2 28 350.0 385.0
11 2 -1 596.0 634.0
12 6 20 256.0 291.0
13 3 30 224.0 256.0
14 -1 -1 -1.0 -1.0
15 4 23 200.0 229.0
16 5 22 221.0 241.0
17 7 31 141.0 167.0
18 0 26 479.0 512.0
19 8 27 178.0 203.0
20 6 -1 434.0 470.0
21 0 18 369.0 402.0
22 5 29 360.0 383.0
23 4 24 427.0 454.0
24 4 -1 574.0 596.0
25 3 33 512.0 538.0
26 0 -1 538.0 574.0
27 8 -1 438.0 464.0
28 2 11 439.0 474.0
29 5 -1 417.0 454.0
30 3 25 402.0 441.0
31 7 -1 396.0 418.0
32 1 34 402.0 439.0
33 3 -1 635.0 658.0
34 1 -1 565.0 596.0
35 9 -1 387.0 419.0
36 -1 -1 -1.0 -1.0
